49 300 205 222 242 228 247 208 222 239 235 208 232 209 208 236 211 205 242 215 236 249 238 241 231 226 250 240 201 241 241 249 217 247 245 234 249 241 216 221 203 201 203 235 235 212 246 220 242 237 236 